c Result of efficient AIG-to-CNF conversion using package CNF
p cnf 581 2084
-2 -354 427 0
-2 3 427 0
2 -427 0
2 -3 354 0
3 4 -161 -329 0
3 4 161 -166 0
-3 -4 0
-3 -161 329 0
-3 161 166 0
-4 5 28 64 115 0
4 -5 0
4 -115 0
4 -64 0
4 -28 0
5 6 -18 0
-5 -6 0
-5 18 0
-6 544 7 0
6 -544 0
6 -7 0
-7 8 14 16 17 0
7 -17 0
7 -8 0
7 -16 0
7 -14 0
-8 541 542 9 11 0
8 -541 0
8 -11 0
8 -9 0
8 -542 0
-9 537 538 543 10 0
9 -10 0
9 -543 0
9 -537 0
9 -538 0
-10 533 539 540 0
10 -533 0
10 -540 0
10 -539 0
-11 534 535 536 12 0
11 -12 0
11 -536 0
11 -534 0
11 -535 0
-12 529 530 13 0
12 -13 0
12 -530 0
12 -529 0
-13 525 526 531 532 0
13 -532 0
13 -531 0
13 -525 0
13 -526 0
-14 523 527 528 15 0
14 -15 0
14 -528 0
14 -523 0
14 -527 0
-15 521 522 0
15 -521 0
15 -522 0
-16 517 524 0
16 -517 0
16 -524 0
-17 518 519 520 0
17 -518 0
17 -520 0
17 -519 0
18 545 -19 0
18 -545 -26 0
-18 -545 26 0
-18 545 19 0
19 546 -20 0
19 -546 -23 0
-19 -546 23 0
-19 546 20 0
20 547 -21 0
20 -547 -22 0
-20 -547 22 0
-20 547 21 0
21 -548 -557 0
21 548 -558 0
-21 548 558 0
-21 -548 557 0
22 -548 -555 0
22 548 -556 0
-22 548 556 0
-22 -548 555 0
23 547 -24 0
23 -547 -25 0
-23 -547 25 0
-23 547 24 0
24 -548 -553 0
24 548 -554 0
-24 548 554 0
-24 -548 553 0
25 -548 -551 0
25 548 -552 0
-25 548 552 0
-25 -548 551 0
26 546 -27 0
-26 -546 0
-26 27 0
27 547 548 -550 0
27 547 -548 -549 0
-27 -547 0
-27 -548 549 0
-27 548 550 0
-28 29 39 0
28 -29 0
28 -39 0
29 6 -30 0
-29 -6 0
-29 30 0
30 545 -31 0
30 -545 -38 0
-30 -545 38 0
-30 545 31 0
31 546 -32 0
31 -546 -35 0
-31 -546 35 0
-31 546 32 0
32 547 -33 0
32 -547 -34 0
-32 -547 34 0
-32 547 33 0
33 -548 -556 0
33 548 -557 0
-33 548 557 0
-33 -548 556 0
34 -548 -554 0
34 548 -555 0
-34 548 555 0
-34 -548 554 0
35 547 -36 0
35 -547 -37 0
-35 -547 37 0
-35 547 36 0
36 -548 -552 0
36 548 -553 0
-36 548 553 0
-36 -548 552 0
37 -548 -550 0
37 548 -551 0
-37 548 551 0
-37 -548 550 0
38 546 547 548 -549 0
-38 549 0
-38 -548 0
-38 -546 0
-38 -547 0
-39 40 56 0
39 -40 0
39 -56 0
40 544 7 -41 0
40 -544 7 -18 0
-40 -7 0
-40 544 41 0
-40 -544 18 0
-41 545 42 0
-41 -545 49 0
41 -545 -49 0
41 545 -42 0
-42 546 46 0
-42 -546 43 0
42 -546 -43 0
42 546 -46 0
43 547 -44 0
43 -547 -45 0
-43 -547 45 0
-43 547 44 0
44 -548 -569 0
44 548 -570 0
-44 548 570 0
-44 -548 569 0
45 -548 -567 0
45 548 -568 0
-45 548 568 0
-45 -548 567 0
46 547 -47 0
46 -547 -48 0
-46 -547 48 0
-46 547 47 0
47 -548 -573 0
47 548 -574 0
-47 548 574 0
-47 -548 573 0
48 -548 -571 0
48 548 -572 0
-48 548 572 0
-48 -548 571 0
49 546 -50 0
49 -546 -53 0
-49 -546 53 0
-49 546 50 0
50 547 -51 0
50 -547 -52 0
-50 -547 52 0
-50 547 51 0
51 -548 -565 0
51 548 -566 0
-51 548 566 0
-51 -548 565 0
52 -548 -563 0
52 548 -564 0
-52 548 564 0
-52 -548 563 0
53 547 -54 0
53 -547 -55 0
-53 -547 55 0
-53 547 54 0
54 -548 -561 0
54 548 -562 0
-54 548 562 0
-54 -548 561 0
55 -548 -559 0
55 548 -560 0
-55 548 560 0
-55 -548 559 0
56 6 -57 0
-56 -6 0
-56 57 0
57 545 -58 0
57 -545 -62 0
-57 -545 62 0
-57 545 58 0
58 546 -59 0
58 -546 -61 0
-58 -546 61 0
-58 546 59 0
59 -547 -33 0
59 547 -60 0
-59 547 60 0
-59 -547 33 0
60 -548 -558 0
60 548 -559 0
-60 548 559 0
-60 -548 558 0
61 547 -34 0
61 -547 -36 0
-61 -547 36 0
-61 547 34 0
62 546 -63 0
-62 -546 0
-62 63 0
63 547 -37 0
63 -547 548 -549 0
-63 -547 -548 0
-63 547 37 0
-63 -547 549 0
-64 65 81 89 0
64 -89 0
64 -81 0
64 -65 0
65 544 7 -66 0
65 -544 7 -57 0
-65 -7 0
-65 544 66 0
-65 -544 57 0
-66 545 67 0
-66 -545 74 0
66 -545 -74 0
66 545 -67 0
-67 546 71 0
-67 -546 68 0
67 -546 -68 0
67 546 -71 0
68 547 -69 0
68 -547 -70 0
-68 -547 70 0
-68 547 69 0
69 -548 -570 0
69 548 -571 0
-69 548 571 0
-69 -548 570 0
70 -548 -568 0
70 548 -569 0
-70 548 569 0
-70 -548 568 0
71 547 -72 0
71 -547 -73 0
-71 -547 73 0
-71 547 72 0
72 -548 -574 0
72 548 -575 0
-72 548 575 0
-72 -548 574 0
73 -548 -572 0
73 548 -573 0
-73 548 573 0
-73 -548 572 0
74 546 -75 0
74 -546 -78 0
-74 -546 78 0
-74 546 75 0
75 547 -76 0
75 -547 -77 0
-75 -547 77 0
-75 547 76 0
76 -548 -566 0
76 548 -567 0
-76 548 567 0
-76 -548 566 0
77 -548 -564 0
77 548 -565 0
-77 548 565 0
-77 -548 564 0
78 547 -79 0
78 -547 -80 0
-78 -547 80 0
-78 547 79 0
79 -548 -562 0
79 548 -563 0
-79 548 563 0
-79 -548 562 0
80 -548 -560 0
80 548 -561 0
-80 548 561 0
-80 -548 560 0
81 544 7 -82 0
81 -544 7 -30 0
-81 -7 0
-81 544 82 0
-81 -544 30 0
-82 545 83 0
-82 -545 86 0
82 -545 -86 0
82 545 -83 0
-83 546 85 0
-83 -546 84 0
83 -546 -84 0
83 546 -85 0
84 547 -70 0
84 -547 -76 0
-84 -547 76 0
-84 547 70 0
85 -547 -69 0
85 547 -73 0
-85 547 73 0
-85 -547 69 0
86 546 -87 0
86 -546 -88 0
-86 -546 88 0
-86 546 87 0
87 547 -77 0
87 -547 -79 0
-87 -547 79 0
-87 547 77 0
88 -547 -60 0
88 547 -80 0
-88 547 80 0
-88 -547 60 0
-89 90 93 105 112 0
89 -112 0
89 -105 0
89 -90 0
89 -93 0
90 -544 7 -92 0
90 544 7 -91 0
-90 -7 0
-90 -544 92 0
-90 544 91 0
91 -545 -19 0
91 545 -49 0
-91 545 49 0
-91 -545 19 0
92 545 -26 0
-92 -545 0
-92 26 0
93 -544 7 -101 0
93 544 7 -94 0
-93 -7 0
-93 -544 101 0
-93 544 94 0
94 545 -95 0
94 -545 -98 0
-94 -545 98 0
-94 545 95 0
95 546 -96 0
95 -546 -97 0
-95 -546 97 0
-95 546 96 0
96 547 -45 0
96 -547 -51 0
-96 -547 51 0
-96 547 45 0
97 547 -52 0
97 -547 -54 0
-97 -547 54 0
-97 547 52 0
98 546 -99 0
98 -546 -100 0
-98 -546 100 0
-98 546 99 0
99 -547 -21 0
99 547 -55 0
-99 547 55 0
-99 -547 21 0
100 547 -22 0
100 -547 -24 0
-100 -547 24 0
-100 547 22 0
101 545 -102 0
-101 -545 0
-101 102 0
102 546 -103 0
-102 -546 0
-102 103 0
103 547 -25 0
103 -547 -104 0
-103 -547 104 0
-103 547 25 0
104 -548 -549 0
104 548 -550 0
-104 548 550 0
-104 -548 549 0
105 -544 7 -109 0
105 544 7 -106 0
-105 -7 0
-105 -544 109 0
-105 544 106 0
106 545 -107 0
106 -545 -108 0
-106 -545 108 0
-106 545 107 0
107 546 -84 0
107 -546 -87 0
-107 -546 87 0
-107 546 84 0
108 -546 -32 0
108 546 -88 0
-108 546 88 0
-108 -546 32 0
109 545 -110 0
-109 -545 0
-109 110 0
110 546 -35 0
110 -546 -111 0
-110 -546 111 0
-110 546 35 0
111 547 548 -549 0
-111 549 0
-111 -548 0
-111 -547 0
112 -544 7 -114 0
112 544 7 -113 0
-112 -7 0
-112 -544 114 0
-112 544 113 0
113 -545 -58 0
113 545 -74 0
-113 545 74 0
-113 -545 58 0
114 545 -62 0
-114 -545 0
-114 62 0
-115 116 119 125 144 0
115 -116 0
115 -144 0
115 -125 0
115 -119 0
116 -544 7 -118 0
116 544 7 -117 0
-116 -7 0
-116 -544 118 0
-116 544 117 0
117 -545 -31 0
117 545 -86 0
-117 545 86 0
-117 -545 31 0
118 545 -38 0
-118 -545 0
-118 38 0
119 -544 7 -123 0
119 544 7 -120 0
-119 -7 0
-119 -544 123 0
-119 544 120 0
120 545 -121 0
120 -545 -122 0
-120 -545 122 0
-120 545 121 0
121 546 -43 0
121 -546 -50 0
-121 -546 50 0
-121 546 43 0
122 -546 -20 0
122 546 -53 0
-122 546 53 0
-122 -546 20 0
123 545 -124 0
-123 -545 0
-123 124 0
124 546 -23 0
124 -546 -27 0
-124 -546 27 0
-124 546 23 0
-125 126 132 139 0
125 -139 0
125 -132 0
125 -126 0
126 -544 7 -130 0
126 544 7 -127 0
-126 -7 0
-126 -544 130 0
-126 544 127 0
127 545 -128 0
127 -545 -129 0
-127 -545 129 0
-127 545 128 0
128 546 -68 0
128 -546 -75 0
-128 -546 75 0
-128 546 68 0
129 -546 -59 0
129 546 -78 0
-129 546 78 0
-129 -546 59 0
130 545 -131 0
-130 -545 0
-130 131 0
131 546 -61 0
131 -546 -63 0
-131 -546 63 0
-131 546 61 0
132 -544 7 -137 0
132 544 7 -133 0
-132 -7 0
-132 -544 137 0
-132 544 133 0
133 545 -134 0
133 -545 -136 0
-133 -545 136 0
-133 545 134 0
134 -546 -96 0
134 546 -135 0
-134 546 135 0
-134 -546 96 0
135 -547 -44 0
135 547 -48 0
-135 547 48 0
-135 -547 44 0
136 546 -97 0
136 -546 -99 0
-136 -546 99 0
-136 546 97 0
137 545 -138 0
-137 -545 0
-137 138 0
138 546 -100 0
138 -546 -103 0
-138 -546 103 0
-138 546 100 0
-139 140 141 142 143 0
139 -143 0
139 -142 0
139 -140 0
139 -141 0
140 6 -123 0
-140 -6 0
-140 123 0
141 6 -130 0
-141 -6 0
-141 130 0
142 6 -137 0
-142 -6 0
-142 137 0
143 6 -101 0
-143 -6 0
-143 101 0
-144 145 151 153 155 0
144 -155 0
144 -153 0
144 -145 0
144 -151 0
-145 146 148 149 150 0
145 -150 0
145 -149 0
145 -146 0
145 -148 0
146 6 -147 0
-146 -6 0
-146 147 0
147 545 -136 0
147 -545 -138 0
-147 -545 138 0
-147 545 136 0
148 6 -92 0
-148 -6 0
-148 92 0
149 6 -114 0
-149 -6 0
-149 114 0
150 6 -118 0
-150 -6 0
-150 118 0
151 6 -152 0
-151 -6 0
-151 152 0
152 545 -98 0
152 -545 -102 0
-152 -545 102 0
-152 545 98 0
153 6 -154 0
-153 -6 0
-153 154 0
154 545 -129 0
154 -545 -131 0
-154 -545 131 0
-154 545 129 0
-155 156 158 159 0
155 -156 0
155 -159 0
155 -158 0
156 6 -157 0
-156 -6 0
-156 157 0
157 545 -108 0
157 -545 -110 0
-157 -545 110 0
-157 545 108 0
158 6 -109 0
-158 -6 0
-158 109 0
159 6 -160 0
-159 -6 0
-159 160 0
160 545 -122 0
160 -545 -124 0
-160 -545 124 0
-160 545 122 0
161 544 7 -162 0
161 -544 7 -152 0
-161 -7 0
-161 544 162 0
-161 -544 152 0
-162 -545 95 0
-162 545 163 0
162 -545 -95 0
162 545 -163 0
-163 546 164 0
-163 -546 135 0
163 -546 -135 0
163 546 -164 0
164 -547 -47 0
164 547 -165 0
-164 547 165 0
-164 -547 47 0
165 -548 -575 0
165 548 -576 0
-165 548 576 0
-165 -548 575 0
-166 167 172 0
-166 -167 303 0
166 -167 -303 0
166 167 -172 0
167 544 7 -168 0
167 -544 7 -157 0
-167 -7 0
-167 544 168 0
-167 -544 157 0
-168 -545 107 0
-168 545 169 0
168 -545 -107 0
168 545 -169 0
-169 -546 85 0
-169 546 170 0
169 -546 -85 0
169 546 -170 0
-170 547 171 0
-170 -547 72 0
170 -547 -72 0
170 547 -171 0
171 -548 -576 0
171 548 -577 0
-171 548 577 0
-171 -548 576 0
-172 173 178 0
-172 -173 274 0
172 -173 -274 0
172 173 -178 0
173 544 7 -174 0
173 -544 7 -160 0
-173 -7 0
-173 544 174 0
-173 -544 160 0
-174 -545 121 0
-174 545 175 0
174 -545 -121 0
174 545 -175 0
-175 -546 46 0
-175 546 176 0
175 -546 -46 0
175 546 -176 0
-176 547 177 0
-176 -547 165 0
176 -547 -165 0
176 547 -177 0
177 -548 -577 0
177 548 -578 0
-177 548 578 0
-177 -548 577 0
-178 179 242 0
-178 -179 184 0
178 -179 -184 0
178 179 -242 0
179 544 7 -180 0
179 -544 7 -154 0
-179 -7 0
-179 544 180 0
-179 -544 154 0
-180 -545 128 0
-180 545 181 0
180 -545 -128 0
180 545 -181 0
-181 -546 71 0
-181 546 182 0
181 -546 -71 0
181 546 -182 0
-182 547 183 0
-182 -547 171 0
182 -547 -171 0
182 547 -183 0
183 -548 -578 0
183 548 -579 0
-183 548 579 0
-183 -548 578 0
184 185 -190 0
184 -185 -217 0
-184 -185 217 0
-184 185 190 0
185 544 7 -186 0
185 -544 7 -147 0
-185 -7 0
-185 544 186 0
-185 -544 147 0
-186 -545 134 0
-186 545 187 0
186 -545 -134 0
186 545 -187 0
-187 -546 164 0
-187 546 188 0
187 -546 -164 0
187 546 -188 0
-188 547 189 0
-188 -547 177 0
188 -547 -177 0
188 547 -189 0
189 -548 -579 0
189 548 -580 0
-189 548 580 0
-189 -548 579 0
190 7 -191 0
190 -544 7 -206 0
-190 -7 0
-190 191 206 0
-190 544 191 0
191 544 -545 -199 0
191 544 545 -192 0
-191 -544 0
-191 -545 199 0
-191 545 192 0
-192 546 193 0
-192 -546 196 0
192 -546 -196 0
192 546 -193 0
-193 547 195 0
-193 -547 194 0
193 -547 -194 0
193 547 -195 0
194 -523 -548 0
194 -522 548 0
-194 522 548 0
-194 523 -548 0
195 -521 -548 0
195 -520 548 0
-195 520 548 0
-195 521 -548 0
196 547 -197 0
196 -547 -198 0
-196 -547 198 0
-196 547 197 0
197 -525 -548 0
197 -524 548 0
-197 524 548 0
-197 525 -548 0
198 -527 -548 0
198 -526 548 0
-198 526 548 0
-198 527 -548 0
199 546 -200 0
199 -546 -203 0
-199 -546 203 0
-199 546 200 0
200 547 -201 0
200 -547 -202 0
-200 -547 202 0
-200 547 201 0
201 -529 -548 0
201 -528 548 0
-201 528 548 0
-201 529 -548 0
202 -531 -548 0
202 -530 548 0
-202 530 548 0
-202 531 -548 0
203 547 -204 0
203 -547 -205 0
-203 -547 205 0
-203 547 204 0
204 -533 -548 0
204 -532 548 0
-204 532 548 0
-204 533 -548 0
205 -535 -548 0
205 -534 548 0
-205 534 548 0
-205 535 -548 0
206 545 -207 0
206 -545 -214 0
-206 -545 214 0
-206 545 207 0
207 546 -208 0
207 -546 -211 0
-207 -546 211 0
-207 546 208 0
208 547 -209 0
208 -547 -210 0
-208 -547 210 0
-208 547 209 0
209 -537 -548 0
209 -536 548 0
-209 536 548 0
-209 537 -548 0
210 -539 -548 0
210 -538 548 0
-210 538 548 0
-210 539 -548 0
211 547 -212 0
211 -547 -213 0
-211 -547 213 0
-211 547 212 0
212 -541 -548 0
212 -540 548 0
-212 540 548 0
-212 541 -548 0
213 -543 -548 0
213 -542 548 0
-213 542 548 0
-213 543 -548 0
214 546 -215 0
-214 -546 0
-214 215 0
215 -546 -547 0
215 547 -216 0
215 -547 -548 0
-215 547 216 0
-215 546 -547 548 0
216 -545 -548 0
216 -544 548 0
-216 544 548 0
-216 545 -548 0
217 -544 7 -233 0
217 544 7 -218 0
-217 -7 0
-217 -544 233 0
-217 544 218 0
-218 545 219 0
-218 -545 226 0
218 -545 -226 0
218 545 -219 0
-219 546 223 0
-219 -546 220 0
219 -546 -220 0
219 546 -223 0
220 547 -221 0
220 -547 -222 0
-220 -547 222 0
-220 547 221 0
221 -526 -548 0
221 -525 548 0
-221 525 548 0
-221 526 -548 0
222 -528 -548 0
222 -527 548 0
-222 527 548 0
-222 528 -548 0
223 547 -224 0
223 -547 -225 0
-223 -547 225 0
-223 547 224 0
224 -522 -548 0
224 -521 548 0
-224 521 548 0
-224 522 -548 0
225 -524 -548 0
225 -523 548 0
-225 523 548 0
-225 524 -548 0
226 546 -227 0
226 -546 -230 0
-226 -546 230 0
-226 546 227 0
227 547 -228 0
227 -547 -229 0
-227 -547 229 0
-227 547 228 0
228 -530 -548 0
228 -529 548 0
-228 529 548 0
-228 530 -548 0
229 -532 -548 0
229 -531 548 0
-229 531 548 0
-229 532 -548 0
230 547 -231 0
230 -547 -232 0
-230 -547 232 0
-230 547 231 0
231 -534 -548 0
231 -533 548 0
-231 533 548 0
-231 534 -548 0
232 -536 -548 0
232 -535 548 0
-232 535 548 0
-232 536 -548 0
233 545 -234 0
233 -545 -241 0
-233 -545 241 0
-233 545 234 0
234 546 -235 0
234 -546 -238 0
-234 -546 238 0
-234 546 235 0
235 547 -236 0
235 -547 -237 0
-235 -547 237 0
-235 547 236 0
236 -538 -548 0
236 -537 548 0
-236 537 548 0
-236 538 -548 0
237 -540 -548 0
237 -539 548 0
-237 539 548 0
-237 540 -548 0
238 547 -239 0
238 -547 -240 0
-238 -547 240 0
-238 547 239 0
239 -542 -548 0
239 -541 548 0
-239 541 548 0
-239 542 -548 0
240 -544 -548 0
240 -543 548 0
-240 543 548 0
-240 544 -548 0
241 546 -547 0
241 -545 546 548 0
-241 -546 0
-241 547 -548 0
-241 545 547 0
242 185 -243 0
242 -185 -258 0
-242 -185 258 0
-242 185 243 0
243 7 -244 0
243 -544 7 -252 0
-243 -7 0
-243 244 252 0
-243 544 244 0
244 544 -545 -249 0
244 544 545 -245 0
-244 -544 0
-244 -545 249 0
-244 545 245 0
-245 546 246 0
-245 -546 248 0
245 -546 -248 0
245 546 -246 0
-246 -547 195 0
-246 547 247 0
246 -547 -195 0
246 547 -247 0
-247 518 548 0
-247 519 -548 0
247 -519 -548 0
247 -518 548 0
248 547 -194 0
248 -547 -197 0
-248 -547 197 0
-248 547 194 0
249 546 -250 0
249 -546 -251 0
-249 -546 251 0
-249 546 250 0
250 547 -198 0
250 -547 -201 0
-250 -547 201 0
-250 547 198 0
251 547 -202 0
251 -547 -204 0
-251 -547 204 0
-251 547 202 0
252 545 -253 0
252 -545 -256 0
-252 -545 256 0
-252 545 253 0
253 546 -254 0
253 -546 -255 0
-253 -546 255 0
-253 546 254 0
254 547 -205 0
254 -547 -209 0
-254 -547 209 0
-254 547 205 0
255 547 -210 0
255 -547 -212 0
-255 -547 212 0
-255 547 210 0
-256 -546 -547 0
-256 546 257 0
-256 -546 -548 0
256 546 -257 0
256 -546 547 548 0
257 547 -213 0
257 -547 -216 0
-257 -547 216 0
-257 547 213 0
258 7 -259 0
258 -544 7 -267 0
-258 -7 0
-258 259 267 0
-258 544 259 0
259 544 -545 -264 0
259 544 545 -260 0
-259 -544 0
-259 -545 264 0
-259 545 260 0
-260 546 261 0
-260 -546 263 0
260 -546 -263 0
260 546 -261 0
-261 547 262 0
-261 -547 224 0
261 -547 -224 0
261 547 -262 0
262 -520 -548 0
262 -519 548 0
-262 519 548 0
-262 520 -548 0
263 -547 -221 0
263 547 -225 0
-263 547 225 0
-263 -547 221 0
264 546 -265 0
264 -546 -266 0
-264 -546 266 0
-264 546 265 0
265 547 -222 0
265 -547 -228 0
-265 -547 228 0
-265 547 222 0
266 547 -229 0
266 -547 -231 0
-266 -547 231 0
-266 547 229 0
267 545 -268 0
267 -545 -271 0
-267 -545 271 0
-267 545 268 0
268 546 -269 0
268 -546 -270 0
-268 -546 270 0
-268 546 269 0
269 547 -232 0
269 -547 -236 0
-269 -547 236 0
-269 547 232 0
270 547 -237 0
270 -547 -239 0
-270 -547 239 0
-270 547 237 0
271 546 -272 0
271 -546 547 -548 0
-271 -546 -547 0
-271 546 272 0
-271 -546 548 0
272 547 -240 0
272 -547 -273 0
-272 -547 273 0
-272 547 240 0
273 -546 -548 0
273 -545 548 0
-273 545 548 0
-273 546 -548 0
274 179 -275 0
274 -179 -289 0
-274 -179 289 0
-274 179 275 0
275 185 -276 0
275 -185 -282 0
-275 -185 282 0
-275 185 276 0
276 -544 7 -280 0
276 544 7 -277 0
-276 -7 0
-276 -544 280 0
-276 544 277 0
277 545 -278 0
277 -545 -279 0
-277 -545 279 0
-277 545 278 0
278 546 -248 0
278 -546 -250 0
-278 -546 250 0
-278 546 248 0
279 546 -251 0
279 -546 -254 0
-279 -546 254 0
-279 546 251 0
280 545 -281 0
-280 -545 0
-280 281 0
281 546 -255 0
281 -546 -257 0
-281 -546 257 0
-281 546 255 0
282 -544 7 -286 0
282 544 7 -283 0
-282 -7 0
-282 -544 286 0
-282 544 283 0
-283 545 284 0
-283 -545 285 0
283 -545 -285 0
283 545 -284 0
-284 -546 265 0
-284 546 263 0
284 546 -263 0
284 -546 -265 0
285 546 -266 0
285 -546 -269 0
-285 -546 269 0
-285 546 266 0
286 545 -287 0
286 -545 -288 0
-286 -545 288 0
-286 545 287 0
287 546 -270 0
287 -546 -272 0
-287 -546 272 0
-287 546 270 0
288 546 547 -548 0
-288 548 0
-288 -547 0
-288 -546 0
289 185 -290 0
289 -185 -296 0
-289 -185 296 0
-289 185 290 0
290 -544 7 -294 0
290 544 7 -291 0
-290 -7 0
-290 -544 294 0
-290 544 291 0
291 545 -292 0
291 -545 -293 0
-291 -545 293 0
-291 545 292 0
292 546 -196 0
292 -546 -200 0
-292 -546 200 0
-292 546 196 0
293 546 -203 0
293 -546 -208 0
-293 -546 208 0
-293 546 203 0
294 545 -295 0
-294 -545 0
-294 295 0
295 -546 -547 0
295 546 -211 0
295 -546 -216 0
-295 546 211 0
-295 -546 547 216 0
296 -544 7 -300 0
296 544 7 -297 0
-296 -7 0
-296 -544 300 0
-296 544 297 0
297 545 -298 0
297 -545 -299 0
-297 -545 299 0
-297 545 298 0
298 546 -220 0
298 -546 -227 0
-298 -546 227 0
-298 546 220 0
299 546 -230 0
299 -546 -235 0
-299 -546 235 0
-299 546 230 0
300 545 -301 0
-300 -545 0
-300 301 0
301 546 -238 0
301 -546 -302 0
-301 -546 302 0
-301 546 238 0
-302 546 547 -548 0
-302 545 547 548 0
302 -547 0
302 -545 548 0
302 -546 -548 0
303 173 -304 0
303 -173 -319 0
-303 -173 319 0
-303 173 304 0
304 179 -305 0
304 -179 -312 0
-304 -179 312 0
-304 179 305 0
305 185 -306 0
305 -185 -309 0
-305 -185 309 0
-305 185 306 0
306 -544 7 -308 0
306 544 7 -307 0
-306 -7 0
-306 -544 308 0
-306 544 307 0
307 545 -249 0
307 -545 -253 0
-307 -545 253 0
-307 545 249 0
308 545 -256 0
-308 -545 0
-308 256 0
309 -544 7 -311 0
309 544 7 -310 0
-309 -7 0
-309 -544 311 0
-309 544 310 0
310 545 -264 0
310 -545 -268 0
-310 -545 268 0
-310 545 264 0
311 545 -271 0
-311 -545 0
-311 271 0
312 185 -313 0
312 -185 -316 0
-312 -185 316 0
-312 185 313 0
313 -544 7 -315 0
313 544 7 -314 0
-313 -7 0
-313 -544 315 0
-313 544 314 0
314 545 -199 0
314 -545 -207 0
-314 -545 207 0
-314 545 199 0
315 545 -214 0
-315 -545 0
-315 214 0
316 -544 7 -318 0
316 544 7 -317 0
-316 -7 0
-316 -544 318 0
-316 544 317 0
317 545 -226 0
317 -545 -234 0
-317 -545 234 0
-317 545 226 0
318 545 546 -547 0
-318 547 0
-318 -546 0
-318 -545 0
319 179 -320 0
319 -179 -325 0
-319 -179 325 0
-319 179 320 0
320 185 -321 0
320 -185 -322 0
-320 -185 322 0
-320 185 321 0
321 -545 6 -281 0
321 545 6 -279 0
-321 -6 0
-321 -545 281 0
-321 545 279 0
322 -544 7 -324 0
322 544 7 -323 0
-322 -7 0
-322 -544 324 0
-322 544 323 0
323 545 -285 0
323 -545 -287 0
-323 -545 287 0
-323 545 285 0
324 545 546 547 -548 0
-324 548 0
-324 -547 0
-324 -545 0
-324 -546 0
325 185 -326 0
325 -185 -327 0
-325 -185 327 0
-325 185 326 0
326 -545 6 -295 0
326 545 6 -293 0
-326 -6 0
-326 -545 295 0
-326 545 293 0
327 6 -328 0
-327 -6 0
-327 328 0
328 545 -299 0
328 -545 -301 0
-328 -545 301 0
-328 545 299 0
329 167 -330 0
329 -167 -344 0
-329 -167 344 0
-329 167 330 0
330 173 -331 0
330 -173 -338 0
-330 -173 338 0
-330 173 331 0
331 179 -332 0
331 -179 -335 0
-331 -179 335 0
-331 179 332 0
332 185 -333 0
332 -185 -334 0
-332 -185 334 0
-332 185 333 0
333 6 -252 0
-333 -6 0
-333 252 0
334 6 -267 0
-334 -6 0
-334 267 0
335 185 -336 0
335 -185 -337 0
-335 -185 337 0
-335 185 336 0
336 6 -206 0
-336 -6 0
-336 206 0
337 6 -233 0
-337 -6 0
-337 233 0
338 179 -339 0
338 -179 -341 0
-338 -179 341 0
-338 179 339 0
339 -185 -340 0
-339 185 0
-339 340 0
340 6 -286 0
-340 -6 0
-340 286 0
341 185 -342 0
341 -185 -343 0
-341 -185 343 0
-341 185 342 0
342 6 -294 0
-342 -6 0
-342 294 0
343 6 -300 0
-343 -6 0
-343 300 0
344 173 -345 0
344 -173 179 -352 0
-344 -173 -179 0
-344 173 345 0
-344 -173 352 0
345 179 -346 0
345 -179 -349 0
-345 -179 349 0
-345 179 346 0
346 185 -347 0
346 -185 -348 0
-346 -185 348 0
-346 185 347 0
347 6 -308 0
-347 -6 0
-347 308 0
348 6 -311 0
-348 -6 0
-348 311 0
349 185 -350 0
349 -185 -351 0
-349 -185 351 0
-349 185 350 0
350 6 -315 0
-350 -6 0
-350 315 0
351 545 546 -547 6 0
-351 -545 0
-351 -6 0
-351 547 0
-351 -546 0
352 -185 -353 0
-352 185 0
-352 353 0
353 6 -324 0
-353 -6 0
-353 324 0
354 -244 355 405 0
354 355 405 -412 0
-354 -405 0
-354 -355 0
-354 244 412 0
-355 -356 -357 -358 397 0
-355 356 357 358 397 0
355 356 -358 0
355 -357 358 0
355 -397 0
355 -356 357 0
-356 522 140 0
356 -522 0
356 -140 0
-357 523 141 0
357 -523 0
357 -141 0
358 -359 -396 0
-358 359 0
-358 396 0
359 -360 -361 -395 0
-359 360 0
-359 361 0
-359 395 0
-360 525 29 0
360 -525 0
360 -29 0
361 -362 -363 0
-361 362 0
-361 363 0
-362 527 56 0
362 -527 0
362 -56 0
363 -364 -365 -366 0
-363 366 0
-363 365 0
-363 364 0
-364 528 151 0
364 -528 0
364 -151 0
-365 529 156 0
365 -529 0
365 -156 0
366 -367 -368 0
-366 367 0
-366 368 0
-367 530 159 0
367 -530 0
367 -159 0
368 -369 -370 -394 0
-368 369 0
-368 370 0
-368 394 0
-369 531 153 0
369 -531 0
369 -153 0
370 -371 -372 0
-370 371 0
-370 372 0
-371 533 116 0
371 -533 0
371 -116 0
372 -373 -374 -375 0
-372 375 0
-372 374 0
-372 373 0
-373 534 90 0
373 -534 0
373 -90 0
-374 535 112 0
374 -535 0
374 -112 0
375 -376 -393 0
-375 376 0
-375 393 0
376 -377 -378 -392 0
-376 377 0
-376 378 0
-376 392 0
-377 537 105 0
377 -537 0
377 -105 0
378 -379 -380 0
-378 379 0
-378 380 0
-379 539 126 0
379 -539 0
379 -126 0
380 -381 -382 -383 0
-380 383 0
-380 382 0
-380 381 0
-381 540 132 0
381 -540 0
381 -132 0
-382 541 81 0
382 -541 0
382 -81 0
383 -384 -385 0
-383 384 0
-383 385 0
-384 542 40 0
384 -542 0
384 -40 0
385 -386 -387 0
-385 386 0
-385 387 0
-386 543 65 0
386 -543 0
386 -65 0
387 -544 -161 0
387 -161 -388 0
387 -544 -388 0
-387 544 388 0
-387 161 388 0
-387 544 161 0
388 -545 -167 0
388 -167 -389 0
388 -545 -389 0
-388 545 389 0
-388 167 389 0
-388 545 167 0
389 -546 -173 0
389 -173 -390 0
389 -546 -390 0
-389 546 390 0
-389 173 390 0
-389 546 173 0
390 -547 -179 0
390 -179 -391 0
390 -547 -391 0
-390 547 391 0
-390 179 391 0
-390 547 179 0
391 -548 -185 0
-391 548 0
-391 185 0
-392 538 119 0
392 -538 0
392 -119 0
-393 536 93 0
393 -536 0
393 -93 0
-394 532 146 0
394 -532 0
394 -146 0
-395 526 5 0
395 -526 0
395 -5 0
-396 524 142 0
396 -524 0
396 -142 0
-397 398 399 -403 -404 0
-397 398 399 403 404 0
397 -399 0
397 -403 404 0
397 -398 0
397 403 -404 0
-398 364 365 366 0
-398 -364 -365 -366 0
398 364 -366 0
398 -365 366 0
398 -364 365 0
-399 359 396 400 402 0
-399 -359 -396 400 402 0
399 -402 0
399 359 -396 0
399 -400 0
399 -359 396 0
-400 363 401 0
-400 -362 -395 401 0
400 -401 0
400 -363 395 0
400 362 -363 0
401 367 -368 0
401 -367 368 0
-401 -367 -368 0
-401 367 368 0
-402 360 362 395 0
-402 -362 -363 395 0
-402 -360 -362 -363 0
402 -360 362 0
402 360 -395 0
402 -362 363 0
-403 521 158 0
403 -521 0
403 -158 0
404 -356 -357 -358 0
-404 358 0
-404 357 0
-404 356 0
-405 376 393 406 409 0
-405 -376 -393 406 409 0
405 -409 0
405 376 -393 0
405 -406 0
405 -376 393 0
-406 -386 -387 407 408 0
-406 386 387 407 408 0
406 -408 0
406 -386 387 0
406 -407 0
406 386 -387 0
-407 -381 -382 -384 -385 0
-407 381 382 384 385 0
407 -382 385 0
407 381 -385 0
407 382 -384 0
407 -381 384 0
-408 -377 -379 -380 -392 0
-408 377 379 380 392 0
408 377 -380 0
408 -379 380 0
408 -377 392 0
408 379 -392 0
-409 410 411 0
409 -410 0
409 -411 0
-410 373 374 393 0
-410 373 374 376 0
-410 -373 -374 -376 -393 0
410 -374 393 0
410 373 -376 -393 0
410 -373 374 0
410 -374 376 0
-411 -369 -371 -372 -394 0
-411 369 371 372 394 0
411 369 -372 0
411 -371 372 0
411 -369 394 0
411 371 -394 0
412 -253 -413 415 0
412 -413 -415 -417 0
-412 413 0
-412 253 415 0
-412 -415 417 0
413 388 -414 0
413 -388 414 0
-413 -388 -414 0
-413 388 414 0
414 544 -161 0
414 -544 161 0
-414 -544 -161 0
-414 544 161 0
415 389 -416 0
415 -389 416 0
-415 -389 -416 0
-415 389 416 0
416 545 -167 0
416 -545 167 0
-416 -545 -167 0
-416 545 167 0
417 418 -420 0
417 -418 -425 0
-417 -418 425 0
-417 418 420 0
418 390 -419 0
418 -390 419 0
-418 -390 -419 0
-418 390 419 0
419 546 -173 0
419 -546 173 0
-419 -546 -173 0
-419 546 173 0
420 -421 -423 0
420 -213 421 0
-420 -421 423 0
-420 213 421 0
421 391 -422 0
421 -391 422 0
-421 -391 -422 0
-421 391 422 0
422 547 -179 0
422 -547 179 0
-422 -547 -179 0
-422 547 179 0
423 -545 -424 0
423 -544 424 0
-423 544 424 0
-423 545 -424 0
424 548 -185 0
424 -548 185 0
-424 -548 -185 0
-424 548 185 0
425 -391 -421 0
425 421 -426 0
-425 391 -421 0
-425 421 426 0
426 -547 -424 0
426 -546 424 0
-426 546 424 0
-426 547 -424 0
427 428 435 -491 0
427 428 435 -436 0
-427 -428 0
-427 -435 0
-427 436 491 0
-428 517 150 429 430 0
428 -517 0
428 -430 0
428 -429 0
428 -150 0
-429 518 148 0
429 -518 0
429 -148 0
430 -431 -432 0
-430 431 0
-430 432 0
-431 519 149 0
431 -519 0
431 -149 0
432 -433 -434 0
-432 433 0
-432 434 0
-433 520 143 0
433 -520 0
433 -143 0
434 -403 -404 0
-434 403 0
-434 404 0
-435 -519 -433 -434 0
-435 -149 -433 -434 0
-435 519 149 433 434 0
435 -519 433 0
435 519 149 -434 0
435 -149 433 0
435 -433 434 0
-436 437 484 0
-436 437 -455 0
-436 -355 437 0
436 -437 0
436 355 455 -484 0
437 -4 355 -450 0
437 355 438 -450 0
-437 450 0
-437 -355 0
-437 4 -438 0
-438 -161 445 0
-438 161 439 442 0
438 161 -439 0
438 -161 -445 0
438 161 -442 0
439 167 -173 -441 0
439 167 173 -440 0
-439 -167 0
-439 -173 441 0
-439 173 440 0
-440 -179 275 0
-440 179 184 0
440 179 -184 0
440 -179 -275 0
441 179 -289 0
441 -179 -305 0
-441 -179 305 0
-441 179 289 0
442 -167 -173 -444 0
442 -167 173 -443 0
-442 167 0
-442 -173 444 0
-442 173 443 0
443 179 -312 0
443 -179 -320 0
-443 -179 320 0
-443 179 312 0
444 179 -325 0
444 -179 -332 0
-444 -179 332 0
-444 179 325 0
445 167 -446 0
445 -167 173 -449 0
-445 -167 -173 0
-445 167 446 0
-445 -167 449 0
446 173 -447 0
446 -173 -448 0
-446 -173 448 0
-446 173 447 0
447 179 -335 0
447 -179 -339 0
-447 -179 339 0
-447 179 335 0
448 179 -341 0
448 -179 -346 0
-448 -179 346 0
-448 179 341 0
449 179 -349 0
449 -179 -352 0
-449 -179 352 0
-449 179 349 0
450 -191 405 0
450 405 -413 -451 0
-450 -405 0
-450 191 413 0
-450 191 451 0
451 -415 -452 0
451 -207 415 0
-451 -415 452 0
-451 207 415 0
452 -418 -453 0
452 418 -454 0
-452 418 454 0
-452 -418 453 0
453 -391 -422 0
-453 391 0
-453 422 0
454 421 -423 0
454 -421 -426 0
-454 -421 426 0
-454 421 423 0
455 4 -161 -471 0
455 4 161 -456 0
-455 -4 0
-455 -161 471 0
-455 161 456 0
-456 167 457 0
-456 -167 464 0
456 -167 -464 0
456 167 -457 0
-457 173 458 0
-457 -173 461 0
457 -173 -461 0
457 173 -458 0
-458 179 460 0
-458 -179 459 0
458 -179 -459 0
458 179 -460 0
459 185 -217 0
459 -185 -276 0
-459 -185 276 0
-459 185 217 0
460 -185 -190 0
460 185 -258 0
-460 185 258 0
-460 -185 190 0
461 179 -462 0
461 -179 -463 0
-461 -179 463 0
-461 179 462 0
462 185 -282 0
462 -185 -290 0
-462 -185 290 0
-462 185 282 0
463 185 -296 0
463 -185 -306 0
-463 -185 306 0
-463 185 296 0
464 173 -465 0
464 -173 -468 0
-464 -173 468 0
-464 173 465 0
465 179 -466 0
465 -179 -467 0
-465 -179 467 0
-465 179 466 0
466 185 -309 0
466 -185 -313 0
-466 -185 313 0
-466 185 309 0
467 185 -316 0
467 -185 -321 0
-467 -185 321 0
-467 185 316 0
468 179 -469 0
468 -179 -470 0
-468 -179 470 0
-468 179 469 0
469 185 -322 0
469 -185 -326 0
-469 -185 326 0
-469 185 322 0
470 185 -327 0
470 -185 -333 0
-470 -185 333 0
-470 185 327 0
471 167 -472 0
471 -167 -479 0
-471 -167 479 0
-471 167 472 0
472 173 -473 0
472 -173 -476 0
-472 -173 476 0
-472 173 473 0
473 179 -474 0
473 -179 -475 0
-473 -179 475 0
-473 179 474 0
474 185 -334 0
474 -185 -336 0
-474 -185 336 0
-474 185 334 0
475 185 -337 0
-475 -185 0
-475 337 0
476 179 -477 0
476 -179 -478 0
-476 -179 478 0
-476 179 477 0
477 185 -340 0
477 -185 -342 0
-477 -185 342 0
-477 185 340 0
478 185 -343 0
478 -185 -347 0
-478 -185 347 0
-478 185 343 0
479 173 -480 0
479 -173 179 -483 0
-479 -173 -179 0
-479 173 480 0
-479 -173 483 0
480 179 -481 0
480 -179 -482 0
-480 -179 482 0
-480 179 481 0
481 185 -348 0
481 -185 -350 0
-481 -185 350 0
-481 185 348 0
482 185 -351 0
-482 -185 0
-482 351 0
483 185 -353 0
-483 -185 0
-483 353 0
484 -259 405 0
484 405 -413 -485 0
-484 -405 0
-484 259 413 0
-484 259 485 0
485 -415 -486 0
485 -268 415 0
-485 -415 486 0
-485 268 415 0
486 418 -487 0
486 -418 421 -490 0
-486 -418 -421 0
-486 418 487 0
-486 -418 490 0
487 421 -488 0
487 -421 -489 0
-487 -421 489 0
-487 421 488 0
488 -544 -424 0
488 -543 424 0
-488 543 424 0
-488 544 -424 0
489 -546 -424 0
489 -545 424 0
-489 545 424 0
-489 546 -424 0
490 -548 -424 0
490 -547 424 0
-490 547 424 0
-490 548 -424 0
-491 492 512 0
-491 4 492 -493 0
491 -492 0
491 -4 -512 0
491 493 -512 0
492 3 -354 0
-492 -3 0
-492 354 0
-493 161 494 0
-493 -161 -509 0
-493 -161 506 0
493 161 -494 0
493 -161 -506 509 0
-494 167 495 0
-494 -167 -505 0
-494 -167 504 0
494 167 -495 0
494 -167 -504 505 0
-495 173 496 0
-495 -173 503 0
495 -173 -503 0
495 173 -496 0
-496 179 497 0
-496 -179 460 0
496 -179 -460 0
496 179 -497 0
497 -185 -243 0
497 7 185 -498 0
-497 -185 243 0
-497 -7 185 0
-497 185 498 0
-498 544 499 0
-498 328 499 0
498 -499 0
498 -544 -328 0
499 544 -545 -298 0
499 544 545 -500 0
-499 -544 0
-499 -545 298 0
-499 545 500 0
-500 546 501 0
-500 -546 223 0
500 -546 -223 0
500 546 -501 0
501 -547 -262 0
501 547 -502 0
-501 547 502 0
-501 -547 262 0
502 -518 -548 0
502 -517 548 0
-502 517 548 0
-502 518 -548 0
503 179 -459 0
503 -179 -462 0
-503 -179 462 0
-503 179 459 0
-504 173 -179 466 0
-504 173 179 463 0
504 -173 0
504 -179 -466 0
504 179 -463 0
505 -173 -179 469 0
505 -173 179 467 0
-505 173 0
-505 -179 -469 0
-505 179 -467 0
-506 167 -173 508 0
-506 167 173 507 0
506 -167 0
506 -173 -508 0
506 173 -507 0
507 179 -470 0
507 -179 -474 0
-507 -179 474 0
-507 179 470 0
508 179 -475 0
508 -179 -477 0
-508 -179 477 0
-508 179 475 0
509 -167 -173 511 0
509 -167 173 510 0
-509 167 0
-509 -173 -511 0
-509 173 -510 0
510 179 -478 0
510 -179 -481 0
-510 -179 481 0
-510 179 478 0
511 179 -482 0
511 -179 -483 0
-511 -179 483 0
-511 179 482 0
512 355 405 -513 0
512 355 405 -499 0
-512 -355 0
-512 -405 0
-512 499 513 0
513 -299 -413 415 0
513 -413 -415 -514 0
-513 413 0
-513 299 415 0
-513 -415 514 0
514 418 -515 0
514 -418 -516 0
-514 -418 516 0
-514 418 515 0
515 -421 -488 0
515 -239 421 0
-515 -421 488 0
-515 239 421 0
516 421 -489 0
516 -421 -490 0
-516 -421 490 0
-516 421 489 0
-581 0
2 0

